#    GLPSOL model for polygon b2937e1c-418a-48df-9491-a811d1d6a45a

#Variables
var x_0 >= 0;
var x_1 >= 0;
var x_2 >= 0;
var x_3 >= 0;
var x_4 >= 0;
var x_5 >= 0;
var x_6 >= 0;
var x_7 >= 0;
var x_8 >= 0;
var x_9 >= 0;

#Objective
minimize vertex_guard: x_0 + x_1 + x_2 + x_3 + x_4 + x_5 + x_6 + x_7 + x_8 + x_9;
#Constraints:
s.t. guard_0: x_0 + x_3 + x_1 + x_2 + x_4 >= 1;
s.t. guard_1: x_1 + x_2 + x_0 + x_3 + x_4 + x_5 >= 1;
s.t. guard_2: x_2 + x_5 + x_1 + x_0 + x_3 + x_4 >= 1;
s.t. guard_3: x_3 + x_4 + x_0 + x_1 + x_2 >= 1;
s.t. guard_4: x_4 + x_9 + x_3 + x_0 + x_1 + x_2 + x_5 >= 1;
s.t. guard_5: x_5 + x_6 + x_2 + x_1 + x_4 + x_7 + x_8 + x_9 >= 1;
s.t. guard_6: x_6 + x_7 + x_5 + x_9 >= 1;
s.t. guard_7: x_7 + x_8 + x_6 + x_5 + x_9 >= 1;
s.t. guard_8: x_8 + x_9 + x_7 + x_5 >= 1;
s.t. guard_9: x_9 + x_4 + x_8 + x_5 + x_6 + x_7 >= 1;
end;